(set-info :smt-lib-version 2.6)
(set-logic QF_S)
(set-info :source |
Generated by: Hung-En Wang, Tzung-Lin Tsai, Chun-Han Lin, Fang Yu, and Jie-Hong R. Jiang
Generated on: 2019-02-28
Generator: Stranger
Application: Security analysis of string manipulating web applications
Target solver: CVC4, Norn, Z3-str2
Publication:
Hung-En Wang, Tzung-Lin Tsai, Chun-Han Lin, Fang Yu, Jie-Hong R. Jiang:
String Analysis via Automata Manipulation with Logic Circuit Representation. CAV (1) 2016: 241-260.
|)
(set-info :license "https://creativecommons.org/licenses/by/4.0/")
(set-info :category "industrial")
(set-info :status unknown)

(declare-fun sigmaStar_0 () String)
(declare-fun literal_7 () String)
(declare-fun x_8 () String)
(declare-fun literal_2 () String)
(declare-fun literal_5 () String)
(declare-fun x_11 () String)
(declare-fun literal_14 () String)
(declare-fun x_15 () String)
(declare-fun literal_16 () String)
(declare-fun x_17 () String)
(assert (= literal_7 "\u{20}\u{73}\u{72}\u{63}\u{3d}\u{5c}\u{22}"))
(assert (= literal_2 "\u{2f}\u{70}\u{69}\u{78}"))
(assert (= literal_5 "\u{2f}\u{74}\u{68}\u{65}\u{6d}\u{65}\u{2f}\u{2f}\u{70}\u{69}\u{78}"))
(assert (or (= x_8 literal_2) (= x_8 literal_5)))
(assert (= x_11 (str.++ literal_7 x_8)))
(assert (= literal_14 "\u{2f}\u{74}\u{2f}\u{64}\u{65}\u{6c}\u{65}\u{74}\u{65}\u{2e}\u{67}\u{69}\u{66}\u{5c}\u{22}\u{20}\u{68}\u{65}\u{69}\u{67}\u{68}\u{74}\u{3d}\u{5c}\u{22}\u{31}\u{31}\u{5c}\u{22}\u{20}\u{77}\u{69}\u{64}\u{74}\u{68}\u{3d}\u{5c}\u{22}\u{31}\u{31}\u{5c}\u{22}\u{20}\u{62}\u{6f}\u{72}\u{64}\u{65}\u{72}\u{3d}\u{5c}\u{22}\u{30}\u{5c}\u{22}\u{3e}\u{3c}\u{2f}\u{61}\u{3e}\u{20}"))
(assert (= x_15 (str.++ x_11 literal_14)))
(assert (= literal_16 "\u{3c}\u{61}\u{20}\u{74}\u{69}\u{74}\u{6c}\u{65}\u{3d}\u{22}\u{64}\u{65}\u{6c}\u{65}\u{74}\u{65}\u{5c}\u{22}\u{20}\u{68}\u{72}\u{65}\u{66}\u{3d}\u{5c}\u{22}\u{64}\u{65}\u{6c}\u{65}\u{74}\u{65}\u{2e}\u{70}\u{68}\u{70}\u{3f}\u{69}\u{64}\u{3d}\u{5c}\u{22}\u{3e}\u{3c}\u{69}\u{6d}\u{67}"))
(assert (= x_17 (str.++ literal_16 x_15)))
(assert (str.in_re x_17 (re.++ (re.* re.allchar) (re.++ (str.to_re "\u{5c}\u{3c}\u{53}\u{43}\u{52}\u{49}\u{50}\u{54}") (re.* re.allchar)))))
(check-sat)
(exit)
